24166.7	13250
23883.3	14533.3
22583.3	14300
21600	14150
21600	14966.7
21600	16500
20900	17066.7
20833.3	17100
23616.7	15866.7
23700	15933.3
26133.3	14500
26550	13850
26433.3	13433.3
27096.1	13415.8
27153.6	13203.3
27026.1	13051.9
27462.5	12992.2
27433.3	12400
27233.3	11783.3
26733.3	11683.3
26283.3	12766.7
25149.2	12365.8
26150	10550
27233.3	10450
27266.7	10383.3
27166.7	9833.33
22683.3	12716.7
22183.3	13133.3
21300	13016.7
